10
33
8 5 7 9 6 5 6 9 8 
0 122 269 239 413 203 37 270 174 234 
122 0 376 200 507 251 88 270 283 303 
269 376 0 498 155 198 291 303 94 391 
239 200 498 0 649 432 234 468 406 222 
413 507 155 649 0 279 429 356 243 546 
203 251 198 432 279 0 198 109 154 422 
37 88 291 234 429 198 0 251 197 262 
270 270 303 468 356 109 251 0 263 503 
174 283 94 406 243 154 197 263 0 319 
234 303 391 222 546 422 262 503 319 0 
